p cnf 34 87
a 33 14 0
e 1 2 3 4 5 6 7 8 9 10 11 12 13 15 16 17 18 19 20 21 22 23 24 25 26 27 28 29 30 31 32 34 0
-4 -2 0
-4 -3 0
2 3 4 0
-5 -1 0
-5 4 0
1 -4 5 0
6 -1 0
6 -3 0
1 3 -6 0
-8 -7 0
-8 2 0
7 -2 8 0
6 -8 -9 0
-6 8 -9 0
6 8 9 0
-6 -8 9 0
9 -2 -10 0
-9 2 -10 0
9 2 10 0
-9 -2 10 0
10 11 -12 0
-10 -11 -12 0
10 -11 12 0
-10 11 12 0
-14 -7 0
-14 -13 0
7 13 14 0
-12 14 -15 0
12 -14 -15 0
-12 -14 15 0
12 14 15 0
16 5 0
16 -15 0
-5 15 -16 0
19 17 0
19 18 0
-17 -18 -19 0
-20 -2 0
-20 10 0
2 -10 20 0
22 21 0
22 -2 0
-21 2 -22 0
-23 -20 0
-23 -22 0
20 22 23 0
25 -2 0
25 -24 0
2 24 -25 0
-26 -23 0
-26 25 0
23 -25 26 0
27 19 0
27 -26 0
-19 26 -27 0
-28 7 0
-28 -8 0
-7 8 28 0
-29 -24 0
-29 -28 0
24 28 29 0
-18 8 -30 0
18 -8 -30 0
-18 -8 30 0
18 8 30 0
31 -30 0
31 -21 0
30 21 -31 0
32 -29 0
32 31 0
29 -31 -32 0
33 -27 0
33 -32 0
27 32 -33 0
-16 33 -34 0
16 -33 -34 0
-16 -33 34 0
16 33 34 0
-20 15 12 0
-13 8 -31 28 7 2 0
-27 -23 -8 -1 -11 24 -5 0
-32 -30 -2 -12 -25 11 -10 -34 0
-6 30 16 -5 0
27 16 -8 0
-24 6 3 29 -34 -14 11 -31 0
-17 9 7 5 21 -18 -20 34 0
34 0
